
Gurobi 9.5.1 (linux64) logging started Thu 09 Jun 2022 08:00:20 PM MST

Set parameter LogFile to value "/home/local/ASUAD/kmajd1/NNRepLayer_v2/demos/walking_example/dynamic_constraint/repair_net/logs/opt_log_6_9_2022_19_59_43.log"
Gurobi Optimizer version 9.5.1 build v9.5.1rc2 (linux64)
Thread count: 48 physical cores, 96 logical processors, using up to 32 threads
Optimize a model with 37077 rows, 22792 columns and 105173 nonzeros
Model fingerprint: 0xa9d58ed6
Model has 136 quadratic objective terms
Variable types: 9832 continuous, 12960 integer (12960 binary)
Coefficient statistics:
  Matrix range     [7e-04, 3e+01]
  Objective range  [2e-02, 3e+00]
  QObjective range [1e-01, 2e+00]
  Bounds range     [4e-01, 3e+01]
  RHS range        [2e-04, 3e+01]
Presolve removed 22283 rows and 8862 columns
Presolve time: 0.16s
Presolved: 14794 rows, 13930 columns, 69573 nonzeros
Presolved model has 136 quadratic objective terms
Variable types: 9620 continuous, 4310 integer (4310 binary)
Root relaxation presolve removed 4310 rows and 4310 columns
Root relaxation presolved: 10484 rows, 9620 columns, 60953 nonzeros
Root relaxation presolved model has 136 quadratic objective terms


Root relaxation: objective 3.293354e+01, 12102 iterations, 1.09 seconds (3.05 work units)

    Nodes    |    Current Node    |     Objective Bounds      |     Work
 Expl Unexpl |  Obj  Depth IntInf | Incumbent    BestBd   Gap | It/Node Time

     0     0   32.93354    0  794          -   32.93354      -     -    3s
     0     0   32.93853    0  860          -   32.93853      -     -   12s
     0     0   32.93853    0  859          -   32.93853      -     -   12s
     0     0   32.93951    0  964          -   32.93951      -     -   14s
     0     0   32.93951    0  958          -   32.93951      -     -   14s
     0     0   32.93958    0  999          -   32.93958      -     -   15s
     0     0   32.93958    0  993          -   32.93958      -     -   15s
     0     0   32.93958    0  984          -   32.93958      -     -   17s
H    0     0                      71.7199734   32.94153  54.1%     -   29s
H    0     0                      71.4952276   32.94153  53.9%     -   31s
     0     2   32.94153    0  984   71.49523   32.94153  53.9%     -   31s
     7    16   32.96468    3 1147   71.49523   32.94153  53.9%   810   35s
H   31    64                      71.3518643   32.94391  53.8%  1442   49s
H   32    64                      71.2417726   32.94391  53.8%  1490   49s
H   33    64                      71.0038472   32.94391  53.6%  1542   49s
H   42    64                      70.9965976   32.94447  53.6%  1678   49s
H   48    64                      70.9764481   32.94463  53.6%  1786   49s
H   51    64                      70.8364379   32.94463  53.5%  1831   49s
H   59    64                      70.7339724   32.94463  53.4%  1909   49s
    63    96   32.96468    6 1261   70.73397   32.94463  53.4%  1981  103s
H   95   128                      69.8240181   32.94463  52.8%  3420  149s
H   96   128                      44.5978025   32.94463  26.1%  3388  149s
H   97   128                      43.5613686   32.94463  24.4%  3362  149s
H  101   128                      43.3116621   32.94463  23.9%  3235  149s
H  105   128                      42.8187768   32.94463  23.1%  3116  149s

Cutting planes:
  Cover: 60
  Implied bound: 301
  Clique: 1
  MIR: 10989
  Flow cover: 4268
  Relax-and-lift: 451

Explored 127 nodes (354320 simplex iterations) in 149.71 seconds (363.03 work units)
Thread count was 32 (of 96 available processors)

Solution count 10: 42.8188 43.3117 43.5614 ... 71.2418

Solve interrupted
Best objective 4.281877681502e+01, best bound 3.294462558537e+01, gap 23.0603%
